(declare-fun temp1118_1 () (_ BitVec 64))
(declare-fun var342198 () (_ BitVec 64))
(declare-fun temp1118_3 () (_ BitVec 64))
(declare-fun temp1118_2 () (_ BitVec 64))
(declare-fun temp1118_5 () (_ BitVec 64))
(declare-fun temp1118_4 () (_ BitVec 64))
(declare-fun var1586267 () (_ BitVec 64))
(declare-fun temp1118_6 () (_ BitVec 64))
(declare-fun var1586268 () (_ BitVec 64))
(declare-fun var1586345 () (_ BitVec 64))
(declare-fun temp1118_8 () (_ BitVec 64))
(declare-fun temp1118_7 () (_ BitVec 64))
(declare-fun temp1118_10 () (_ BitVec 64))
(declare-fun temp1118_9 () (_ BitVec 64))
(declare-fun var3355739 () (_ BitVec 64))
(declare-fun temp1118_11 () (_ BitVec 64))
(declare-fun var3355740 () (_ BitVec 64))
(declare-fun var3355817 () (_ BitVec 64))
(declare-fun temp1118_13 () (_ BitVec 64))
(declare-fun temp1118_12 () (_ BitVec 64))
(declare-fun var4270945 () (_ BitVec 64))
(declare-fun temp1118_14 () (_ BitVec 64))
(declare-fun var4335729 () (_ BitVec 64))
(declare-fun temp1118_16 () (_ BitVec 64))
(declare-fun temp1118_15 () (_ BitVec 64))
(declare-fun temp1118_18 () (_ BitVec 64))
(declare-fun temp1118_17 () (_ BitVec 64))
(declare-fun var5321819 () (_ BitVec 64))
(declare-fun temp1118_19 () (_ BitVec 64))
(declare-fun var5321820 () (_ BitVec 64))
(declare-fun var5321897 () (_ BitVec 64))
(declare-fun temp1118_21 () (_ BitVec 64))
(declare-fun temp1118_20 () (_ BitVec 64))
(declare-fun var6105953 () (_ BitVec 64))
(declare-fun temp1118_22 () (_ BitVec 64))
(declare-fun var6170737 () (_ BitVec 64))
(declare-fun temp1118_23 () (_ BitVec 64))
(declare-fun var6236273 () (_ BitVec 64))
(declare-fun var1586516 () (_ BitVec 64))
(declare-fun temp1118_24 () (_ BitVec 64))
(declare-fun var1586517 () (_ BitVec 64))
(declare-fun temp1118_25 () (_ BitVec 64))
(assert (= temp1118_1 #x0000000000000000))
(assert (= var342198 temp1118_1))
(assert (= temp1118_3 #x0000000000000000))
(assert (= temp1118_2 temp1118_3))
(assert (= temp1118_5 #x0000000000000001))
(assert (= temp1118_4 temp1118_5))
(assert (= var1586267 var342198))
(assert (= temp1118_6 #x0000000000000000))
(assert (= var1586268 temp1118_6))
(assert (= var1586345 var1586268))
(assert (= temp1118_8 #x0000000000000000))
(assert (= temp1118_7 temp1118_8))
(assert (= temp1118_10 #x0000000000000001))
(assert (= temp1118_9 temp1118_10))
(assert (= var3355739 var1586267))
(assert (= temp1118_11 #x0000000000000000))
(assert (= var3355740 temp1118_11))
(assert (= var3355817 var3355740))
(assert (= temp1118_13 #x0000000000000001))
(assert (= temp1118_12 temp1118_13))
(assert (= var4270945 var3355739))
(assert (= temp1118_14 #x0000000000000000))
(assert (= var4335729 temp1118_14))
(assert (= temp1118_16 #x0000000000000000))
(assert (= temp1118_15 temp1118_16))
(assert (= temp1118_18 #x0000000000000001))
(assert (= temp1118_17 temp1118_18))
(assert (= var5321819 var1586267))
(assert (= temp1118_19 #x0000000000000000))
(assert (= var5321820 temp1118_19))
(assert (= var5321897 var5321820))
(assert (= temp1118_21 #x0000000000000001))
(assert (= temp1118_20 temp1118_21))
(assert (= var6105953 var5321819))
(assert (= temp1118_22 #x0000000000000000))
(assert (= var6170737 temp1118_22))
(assert (= temp1118_23 #x0000000000000000))
(assert (= var6236273 temp1118_23))
(assert (= var1586516 var1586345))
(assert (= temp1118_24 #x0000000000000000))
(assert (= var1586517
   (ite (= var1586516 temp1118_24) #x0000000000000001 #x0000000000000000)))
(assert (= temp1118_25 #x0000000000000001))
(assert (= var1586517 temp1118_25))
(model-add temp1118_1 () (_ BitVec 64) #x0000000000000000)
(model-add var342198 () (_ BitVec 64) #x0000000000000000)
(model-add temp1118_3 () (_ BitVec 64) #x0000000000000000)
(model-add temp1118_2 () (_ BitVec 64) #x0000000000000000)
(model-add temp1118_5 () (_ BitVec 64) #x0000000000000001)
(model-add temp1118_4 () (_ BitVec 64) #x0000000000000001)
(model-add var1586267 () (_ BitVec 64) #x0000000000000000)
(model-add temp1118_6 () (_ BitVec 64) #x0000000000000000)
(model-add var1586268 () (_ BitVec 64) #x0000000000000000)
(model-add var1586345 () (_ BitVec 64) #x0000000000000000)
(model-add temp1118_8 () (_ BitVec 64) #x0000000000000000)
(model-add temp1118_7 () (_ BitVec 64) #x0000000000000000)
(model-add temp1118_10 () (_ BitVec 64) #x0000000000000001)
(model-add temp1118_9 () (_ BitVec 64) #x0000000000000001)
(model-add var3355739 () (_ BitVec 64) #x0000000000000000)
(model-add temp1118_11 () (_ BitVec 64) #x0000000000000000)
(model-add var3355740 () (_ BitVec 64) #x0000000000000000)
(model-add var3355817 () (_ BitVec 64) #x0000000000000000)
(model-add temp1118_13 () (_ BitVec 64) #x0000000000000001)
(model-add temp1118_12 () (_ BitVec 64) #x0000000000000001)
(model-add var4270945 () (_ BitVec 64) #x0000000000000000)
(model-add temp1118_14 () (_ BitVec 64) #x0000000000000000)
(model-add var4335729 () (_ BitVec 64) #x0000000000000000)
(model-add temp1118_16 () (_ BitVec 64) #x0000000000000000)
(model-add temp1118_15 () (_ BitVec 64) #x0000000000000000)
(model-add temp1118_18 () (_ BitVec 64) #x0000000000000001)
(model-add temp1118_17 () (_ BitVec 64) #x0000000000000001)
(model-add var5321819 () (_ BitVec 64) #x0000000000000000)
(model-add temp1118_19 () (_ BitVec 64) #x0000000000000000)
(model-add var5321820 () (_ BitVec 64) #x0000000000000000)
(model-add var5321897 () (_ BitVec 64) #x0000000000000000)
(model-add temp1118_21 () (_ BitVec 64) #x0000000000000001)
(model-add temp1118_20 () (_ BitVec 64) #x0000000000000001)
(model-add var6105953 () (_ BitVec 64) #x0000000000000000)
(model-add temp1118_22 () (_ BitVec 64) #x0000000000000000)
(model-add var6170737 () (_ BitVec 64) #x0000000000000000)
(model-add temp1118_23 () (_ BitVec 64) #x0000000000000000)
(model-add var6236273 () (_ BitVec 64) #x0000000000000000)
(model-add var1586516 () (_ BitVec 64) #x0000000000000000)
(model-add temp1118_24 () (_ BitVec 64) #x0000000000000000)
(model-add var1586517 () (_ BitVec 64) #x0000000000000001)
(model-add temp1118_25 () (_ BitVec 64) #x0000000000000001)


